NAME          ClpDefau
ROWS
 N  OBJROW
 L  R_156_0
 L  R_156_1
 L  R_156_2
 L  R_156_3
 L  R_156_4
 L  R_156_5
 L  R_156_6
 L  R_156_7
 L  R_156_8
 L  R_156_9
 L  R_156_10
 L  R_156_11
 L  R_156_12
 L  R_156_13
 L  R_156_14
 L  R_156_15
 L  R_156_16
 L  R_156_17
 L  R_156_18
 L  R_156_19
 L  R_156_20
 L  R_156_21
 L  R_156_22
 L  R_156_23
 L  R_156_24
 L  R_156_25
 L  R_156_26
 L  R_156_27
 L  R_156_28
 L  R_156_29
 L  R_156_30
 L  R_156_31
COLUMNS
    x_0       OBJROW     -1.           R_156_1   8.          
    x_0       R_156_2   1.             R_156_4   6.          
    x_0       R_156_6   9.             R_156_7   3.          
    x_0       R_156_8   1.             R_156_9   3.          
    x_0       R_156_10  9.             R_156_11  9.          
    x_0       R_156_12  3.             R_156_14  7.          
    x_0       R_156_15  6.             R_156_16  6.          
    x_0       R_156_17  8.             R_156_18  7.          
    x_0       R_156_19  8.             R_156_20  4.          
    x_0       R_156_21  8.             R_156_22  6.          
    x_0       R_156_23  8.             R_156_25  10.         
    x_0       R_156_26  9.             R_156_27  8.          
    x_0       R_156_28  6.          
    x_1       OBJROW     -2.           R_156_0   8.          
    x_1       R_156_1   9.             R_156_2   9.          
    x_1       R_156_3   10.            R_156_4   4.          
    x_1       R_156_5   6.             R_156_7   2.          
    x_1       R_156_8   6.             R_156_9   4.          
    x_1       R_156_11  10.            R_156_12  5.          
    x_1       R_156_13  2.             R_156_14  3.          
    x_1       R_156_16  4.             R_156_18  1.          
    x_1       R_156_19  6.             R_156_20  1.          
    x_1       R_156_21  2.             R_156_22  1.          
    x_1       R_156_23  3.             R_156_25  3.          
    x_1       R_156_26  1.             R_156_27  1.          
    x_1       R_156_28  4.             R_156_29  1.          
    x_1       R_156_30  10.            R_156_31  2.          
    x_2       OBJROW     -2.           R_156_0   8.          
    x_2       R_156_1   8.             R_156_2   10.         
    x_2       R_156_3   5.             R_156_4   10.         
    x_2       R_156_5   8.             R_156_7   6.          
    x_2       R_156_9   3.             R_156_10  7.          
    x_2       R_156_11  6.             R_156_12  6.          
    x_2       R_156_13  10.            R_156_15  9.          
    x_2       R_156_17  5.             R_156_18  3.          
    x_2       R_156_19  8.             R_156_20  9.          
    x_2       R_156_22  1.             R_156_24  8.          
    x_2       R_156_25  2.             R_156_26  10.         
    x_2       R_156_27  10.            R_156_28  5.          
    x_2       R_156_29  5.             R_156_30  1.          
    x_2       R_156_31  7.          
    x_3       OBJROW     -6.           R_156_0   2.          
    x_3       R_156_1   2.             R_156_2   2.          
    x_3       R_156_3   4.             R_156_4   1.          
    x_3       R_156_5   8.             R_156_6   9.          
    x_3       R_156_7   4.             R_156_8   4.          
    x_3       R_156_9   7.             R_156_10  1.          
    x_3       R_156_11  1.             R_156_14  2.          
    x_3       R_156_15  8.             R_156_16  9.          
    x_3       R_156_18  6.             R_156_19  6.          
    x_3       R_156_20  7.             R_156_21  5.          
    x_3       R_156_22  1.             R_156_24  8.          
    x_3       R_156_25  10.            R_156_26  1.          
    x_3       R_156_27  6.             R_156_28  2.          
    x_3       R_156_29  8.             R_156_30  10.         
    x_3       R_156_31  8.          
    x_4       OBJROW     -3.           R_156_0   6.          
    x_4       R_156_1   2.             R_156_2   2.          
    x_4       R_156_3   6.             R_156_4   4.          
    x_4       R_156_5   1.             R_156_6   8.          
    x_4       R_156_7   8.             R_156_8   8.          
    x_4       R_156_9   6.             R_156_10  9.          
    x_4       R_156_12  7.             R_156_15  4.          
    x_4       R_156_16  10.            R_156_17  7.          
    x_4       R_156_18  2.             R_156_19  10.         
    x_4       R_156_20  6.             R_156_21  9.          
    x_4       R_156_22  7.             R_156_24  1.          
    x_4       R_156_25  5.             R_156_26  6.          
    x_4       R_156_27  9.             R_156_28  3.          
    x_4       R_156_29  7.             R_156_30  9.          
    x_4       R_156_31  9.          
    x_5       OBJROW     -5.           R_156_0   3.          
    x_5       R_156_1   4.             R_156_2   6.          
    x_5       R_156_3   10.            R_156_4   8.          
    x_5       R_156_5   1.             R_156_7   3.          
    x_5       R_156_8   1.             R_156_9   7.          
    x_5       R_156_10  7.             R_156_11  8.          
    x_5       R_156_12  9.             R_156_13  2.          
    x_5       R_156_14  4.             R_156_15  4.          
    x_5       R_156_16  7.             R_156_18  1.          
    x_5       R_156_19  9.             R_156_20  8.          
    x_5       R_156_21  2.             R_156_22  4.          
    x_5       R_156_23  10.            R_156_24  4.          
    x_5       R_156_26  9.             R_156_27  4.          
    x_5       R_156_28  10.            R_156_29  8.          
    x_5       R_156_31  10.         
    x_6       OBJROW     -5.           R_156_0   8.          
    x_6       R_156_1   10.            R_156_2   4.          
    x_6       R_156_4   6.             R_156_5   8.          
    x_6       R_156_6   2.             R_156_7   8.          
    x_6       R_156_10  9.             R_156_11  2.          
    x_6       R_156_12  6.             R_156_13  7.          
    x_6       R_156_14  3.             R_156_15  8.          
    x_6       R_156_16  8.             R_156_17  3.          
    x_6       R_156_18  9.             R_156_19  1.          
    x_6       R_156_20  9.             R_156_22  4.          
    x_6       R_156_24  3.             R_156_25  9.          
    x_6       R_156_26  5.             R_156_27  6.          
    x_6       R_156_28  5.             R_156_29  7.          
    x_6       R_156_30  2.             R_156_31  4.          
    x_7       OBJROW     -10.          R_156_0   9.          
    x_7       R_156_2   9.             R_156_3   5.          
    x_7       R_156_4   8.             R_156_5   9.          
    x_7       R_156_6   2.             R_156_7   7.          
    x_7       R_156_9   6.             R_156_10  8.          
    x_7       R_156_11  8.             R_156_12  5.          
    x_7       R_156_13  3.             R_156_15  4.          
    x_7       R_156_17  2.             R_156_19  6.          
    x_7       R_156_20  3.             R_156_21  4.          
    x_7       R_156_22  9.             R_156_23  7.          
    x_7       R_156_25  5.             R_156_28  6.          
    x_7       R_156_29  5.             R_156_30  2.          
    x_7       R_156_31  7.          
    x_8       OBJROW     -4.           R_156_0   5.          
    x_8       R_156_2   8.             R_156_3   3.          
    x_8       R_156_4   7.             R_156_5   1.          
    x_8       R_156_6   3.             R_156_7   7.          
    x_8       R_156_8   6.             R_156_9   10.         
    x_8       R_156_10  5.             R_156_11  3.          
    x_8       R_156_12  4.             R_156_14  3.          
    x_8       R_156_15  6.             R_156_16  7.          
    x_8       R_156_17  2.             R_156_18  4.          
    x_8       R_156_19  10.            R_156_20  6.          
    x_8       R_156_21  10.            R_156_22  3.          
    x_8       R_156_23  2.             R_156_24  5.          
    x_8       R_156_25  9.             R_156_26  2.          
    x_8       R_156_27  10.            R_156_29  1.          
    x_8       R_156_30  8.             R_156_31  6.          
    x_9       OBJROW     -10.          R_156_0   10.         
    x_9       R_156_1   10.            R_156_2   8.          
    x_9       R_156_5   7.             R_156_6   8.          
    x_9       R_156_7   2.             R_156_8   10.         
    x_9       R_156_9   9.             R_156_11  5.          
    x_9       R_156_12  1.             R_156_13  6.          
    x_9       R_156_14  1.             R_156_15  2.          
    x_9       R_156_16  8.             R_156_17  8.          
    x_9       R_156_18  8.             R_156_19  1.          
    x_9       R_156_20  9.             R_156_21  1.          
    x_9       R_156_22  1.             R_156_24  9.          
    x_9       R_156_26  8.             R_156_27  9.          
    x_9       R_156_28  2.             R_156_29  1.          
    x_9       R_156_30  7.             R_156_31  7.          
    x_10      OBJROW     -1.           R_156_1   9.          
    x_10      R_156_2   3.             R_156_3   3.          
    x_10      R_156_4   4.             R_156_5   4.          
    x_10      R_156_6   7.             R_156_7   3.          
    x_10      R_156_8   5.             R_156_10  8.          
    x_10      R_156_11  9.             R_156_12  5.          
    x_10      R_156_13  3.             R_156_14  2.          
    x_10      R_156_15  9.             R_156_16  4.          
    x_10      R_156_17  10.            R_156_18  3.          
    x_10      R_156_19  5.             R_156_20  8.          
    x_10      R_156_21  4.             R_156_23  1.          
    x_10      R_156_24  2.             R_156_25  9.          
    x_10      R_156_27  2.             R_156_30  5.          
    x_11      OBJROW     -10.          R_156_0   6.          
    x_11      R_156_1   5.             R_156_3   2.          
    x_11      R_156_4   7.             R_156_5   1.          
    x_11      R_156_6   2.             R_156_7   5.          
    x_11      R_156_9   7.             R_156_10  9.          
    x_11      R_156_11  10.            R_156_12  4.          
    x_11      R_156_13  3.             R_156_14  8.          
    x_11      R_156_17  10.            R_156_18  4.          
    x_11      R_156_19  8.             R_156_20  8.          
    x_11      R_156_22  2.             R_156_23  10.         
    x_11      R_156_24  8.             R_156_25  10.         
    x_11      R_156_26  10.            R_156_28  5.          
    x_11      R_156_30  5.             R_156_31  1.          
    x_12      OBJROW     -3.           R_156_0   6.          
    x_12      R_156_1   9.             R_156_2   6.          
    x_12      R_156_4   8.             R_156_6   10.         
    x_12      R_156_7   4.             R_156_8   10.         
    x_12      R_156_9   2.             R_156_10  8.          
    x_12      R_156_12  8.             R_156_13  4.          
    x_12      R_156_14  5.             R_156_17  10.         
    x_12      R_156_18  6.             R_156_19  7.          
    x_12      R_156_20  4.             R_156_21  9.          
    x_12      R_156_22  4.             R_156_23  10.         
    x_12      R_156_24  7.             R_156_25  8.          
    x_12      R_156_26  8.             R_156_28  4.          
    x_12      R_156_29  9.             R_156_30  2.          
    x_12      R_156_31  9.          
    x_13      OBJROW     -7.           R_156_0   1.          
    x_13      R_156_1   7.             R_156_2   9.          
    x_13      R_156_3   6.             R_156_4   9.          
    x_13      R_156_6   2.             R_156_7   4.          
    x_13      R_156_8   1.             R_156_9   3.          
    x_13      R_156_10  4.             R_156_11  9.          
    x_13      R_156_12  3.             R_156_13  2.          
    x_13      R_156_14  9.             R_156_15  3.          
    x_13      R_156_16  3.             R_156_17  9.          
    x_13      R_156_18  8.             R_156_19  9.          
    x_13      R_156_20  6.             R_156_21  2.          
    x_13      R_156_22  2.             R_156_23  6.          
    x_13      R_156_24  5.             R_156_27  3.          
    x_13      R_156_28  6.             R_156_29  1.          
    x_13      R_156_30  9.             R_156_31  2.          
    x_14      OBJROW     -7.           R_156_0   9.          
    x_14      R_156_1   7.             R_156_2   4.          
    x_14      R_156_3   3.             R_156_4   1.          
    x_14      R_156_5   6.             R_156_6   5.          
    x_14      R_156_7   1.             R_156_9   4.          
    x_14      R_156_10  6.             R_156_11  10.         
    x_14      R_156_13  9.             R_156_14  1.          
    x_14      R_156_15  2.             R_156_16  5.          
    x_14      R_156_17  4.             R_156_18  9.          
    x_14      R_156_21  3.             R_156_22  3.          
    x_14      R_156_23  6.             R_156_24  10.         
    x_14      R_156_25  8.             R_156_27  8.          
    x_14      R_156_28  10.            R_156_31  5.          
    x_15      OBJROW     -9.           R_156_0   3.          
    x_15      R_156_1   10.            R_156_2   8.          
    x_15      R_156_3   4.             R_156_4   5.          
    x_15      R_156_5   6.             R_156_6   1.          
    x_15      R_156_8   1.             R_156_9   1.          
    x_15      R_156_11  10.            R_156_12  5.          
    x_15      R_156_13  8.             R_156_14  10.         
    x_15      R_156_15  4.             R_156_16  9.          
    x_15      R_156_17  5.             R_156_19  7.          
    x_15      R_156_20  4.             R_156_21  7.          
    x_15      R_156_22  10.            R_156_23  9.          
    x_15      R_156_24  7.             R_156_25  6.          
    x_15      R_156_27  3.             R_156_28  3.          
    x_15      R_156_29  8.             R_156_30  3.          
    x_15      R_156_31  6.          
RHS
    RHS       R_156_0   82.            R_156_1   76.         
    RHS       R_156_2   73.            R_156_3   84.         
    RHS       R_156_4   72.            R_156_5   85.         
    RHS       R_156_6   74.            R_156_7   85.         
    RHS       R_156_8   64.            R_156_9   76.         
    RHS       R_156_10  82.            R_156_11  65.         
    RHS       R_156_12  70.            R_156_13  78.         
    RHS       R_156_14  67.            R_156_15  67.         
    RHS       R_156_16  64.            R_156_17  75.         
    RHS       R_156_18  74.            R_156_19  83.         
    RHS       R_156_20  74.            R_156_21  76.         
    RHS       R_156_22  69.            R_156_23  74.         
    RHS       R_156_24  66.            R_156_25  80.         
    RHS       R_156_26  83.            R_156_27  79.         
    RHS       R_156_28  76.            R_156_29  83.         
    RHS       R_156_30  71.            R_156_31  78.         
BOUNDS
 UI BOUND     x_0       10.         
 UI BOUND     x_1       10.         
 UI BOUND     x_2       10.         
 UI BOUND     x_3       10.         
 UI BOUND     x_4       10.         
 UI BOUND     x_5       10.         
 UI BOUND     x_6       10.         
 UI BOUND     x_7       10.         
 UI BOUND     x_8       10.         
 UI BOUND     x_9       10.         
 UI BOUND     x_10      10.         
 UI BOUND     x_11      10.         
 UI BOUND     x_12      10.         
 UI BOUND     x_13      10.         
 UI BOUND     x_14      10.         
 UI BOUND     x_15      10.         
ENDATA
